decision_x1=[0,2];
decision_x2=[0,2];
decision_x3=[0,2];
decision_x4=[0,2];
decision_x5=[0,2];
decision_x6=[0,2];
decision_x7=[0,2];
decision_x8=[0,2];
decision_x9=[0,2];
decision_x10=[0,2];
decision_x11=[0,2];
decision_x12=[0,2];
decision_x13=[0,2];
decision_x14=[0,2];
decision_x15=[0,2];
random_y1=[0,2];
random_y2=[0,2];
random_y3=[0,2];
constraint_x2_x1=[
0,1,6.7|
0,2,7.9|
1,0,5.9|
1,2,0.23|
2,0,8.9|
2,1,0.71|
];
constraint_x3_x1=[
0,1,2.8|
0,2,4.8|
1,0,1.7|
1,2,8.7|
2,0,1.1|
2,1,2.7|
];
constraint_x3_x2=[
0,1,7.2|
0,2,2.5|
1,0,4.2|
1,2,3.8|
2,0,1.5|
2,1,8.4|
];
constraint_x4_x2=[
0,1,1.5|
0,2,9|
1,0,3.5|
1,2,0.64|
2,0,4.7|
2,1,2.3|
];
constraint_x5_x1=[
0,1,4|
0,2,2.8|
1,0,9.2|
1,2,8.4|
2,0,1.9|
2,1,2|
];
constraint_x5_x2=[
0,1,6.5|
0,2,8.1|
1,0,5.6|
1,2,9|
2,0,3.2|
2,1,8.4|
];
constraint_x5_x3=[
0,1,2.1|
0,2,1.7|
1,0,5.1|
1,2,5.2|
2,0,4.1|
2,1,4.3|
];
constraint_x6_x3=[
0,1,5.8|
0,2,4.4|
1,0,7.2|
1,2,5|
2,0,2.8|
2,1,9.3|
];
constraint_x6_x4=[
0,1,2.2|
0,2,0.66|
1,0,7|
1,2,1.1|
2,0,0.42|
2,1,5.2|
];
constraint_x6_x5=[
0,1,8|
0,2,2.2|
1,0,1.3|
1,2,0.53|
2,0,5.5|
2,1,8.1|
];
constraint_x7_x1=[
0,1,4.9|
0,2,6|
1,0,9.3|
1,2,5.9|
2,0,0.39|
2,1,4.3|
];
constraint_x7_x3=[
0,1,1|
0,2,4.3|
1,0,2.1|
1,2,5.4|
2,0,2.6|
2,1,8.7|
];
constraint_x7_x4=[
0,1,4.4|
0,2,9.9|
1,0,3.4|
1,2,3.8|
2,0,1.8|
2,1,3.4|
];
constraint_x7_x5=[
0,1,5.4|
0,2,6.4|
1,0,7|
1,2,7.7|
2,0,6.6|
2,1,0.2|
];
constraint_x8_x3=[
0,1,2.8|
0,2,5.4|
1,0,4.9|
1,2,3.9|
2,0,2.2|
2,1,1.2|
];
constraint_x8_x5=[
0,1,4.6|
0,2,6.2|
1,0,7.1|
1,2,9.1|
2,0,2.7|
2,1,4.5|
];
constraint_x9_x2=[
0,1,2.5|
0,2,4.4|
1,0,0.9|
1,2,4.1|
2,0,2.6|
2,1,4|
];
constraint_x9_x4=[
0,1,6.4|
0,2,4|
1,0,5.4|
1,2,0.15|
2,0,0.3|
2,1,6.8|
];
constraint_x9_x6=[
0,1,5.1|
0,2,2.1|
1,0,5.2|
1,2,6.3|
2,0,2.8|
2,1,5.7|
];
constraint_x10_x1=[
0,1,6.6|
0,2,8.3|
1,0,6.7|
1,2,8.6|
2,0,8.3|
2,1,7.4|
];
constraint_x10_x2=[
0,1,1.7|
0,2,9.5|
1,0,8.6|
1,2,1.6|
2,0,8.4|
2,1,3.8|
];
constraint_x10_x3=[
0,1,3.7|
0,2,4.2|
1,0,2.1|
1,2,3.4|
2,0,6.6|
2,1,4.8|
];
constraint_x10_x4=[
0,1,3.7|
0,2,4.4|
1,0,9.6|
1,2,1.7|
2,0,8.8|
2,1,6|
];
constraint_x10_x5=[
0,1,5|
0,2,2.6|
1,0,6.1|
1,2,1.5|
2,0,8.7|
2,1,4.5|
];
constraint_x10_x7=[
0,1,4|
0,2,2.2|
1,0,5.5|
1,2,2.4|
2,0,5.7|
2,1,0.34|
];
constraint_x10_x8=[
0,1,2.1|
0,2,5.7|
1,0,5.7|
1,2,6.4|
2,0,2.4|
2,1,3.2|
];
constraint_x11_x2=[
0,1,10|
0,2,4.9|
1,0,6.7|
1,2,9.9|
2,0,2.9|
2,1,2.9|
];
constraint_x11_x3=[
0,1,5.2|
0,2,0.052|
1,0,0.73|
1,2,8|
2,0,1.9|
2,1,5.4|
];
constraint_x11_x7=[
0,1,9|
0,2,7.9|
1,0,4.8|
1,2,2.7|
2,0,3.7|
2,1,10|
];
constraint_x11_x8=[
0,1,6.8|
0,2,5.1|
1,0,1.2|
1,2,2.5|
2,0,1.6|
2,1,5.7|
];
constraint_x11_x9=[
0,1,8.9|
0,2,7.6|
1,0,8.7|
1,2,2.1|
2,0,0.68|
2,1,1.9|
];
constraint_x12_x7=[
0,1,3.3|
0,2,9.7|
1,0,3.8|
1,2,1.3|
2,0,6.1|
2,1,1.9|
];
constraint_x12_x8=[
0,1,5.2|
0,2,5.8|
1,0,3.9|
1,2,2.1|
2,0,1.6|
2,1,5.6|
];
constraint_x12_x10=[
0,1,3.5|
0,2,1.8|
1,0,1.6|
1,2,6.7|
2,0,7.2|
2,1,0.7|
];
constraint_x12_x11=[
0,1,8.3|
0,2,5.3|
1,0,8.4|
1,2,5.1|
2,0,6.8|
2,1,1.4|
];
constraint_x13_x7=[
0,1,8|
0,2,9.5|
1,0,6.5|
1,2,8.7|
2,0,1.5|
2,1,4.6|
];
constraint_x13_x8=[
0,1,2.1|
0,2,1.3|
1,0,5.8|
1,2,1.1|
2,0,4.8|
2,1,0.3|
];
constraint_x13_x9=[
0,1,4|
0,2,7.8|
1,0,1.5|
1,2,5.6|
2,0,8.2|
2,1,3.7|
];
constraint_x13_x10=[
0,1,1.7|
0,2,0.4|
1,0,9.4|
1,2,5.8|
2,0,1.4|
2,1,6.7|
];
constraint_x13_x12=[
0,1,3.5|
0,2,0.91|
1,0,2.9|
1,2,4.4|
2,0,7.1|
2,1,0.83|
];
constraint_x14_x2=[
0,1,9.1|
0,2,4|
1,0,4.7|
1,2,9.6|
2,0,0.088|
2,1,1.4|
];
constraint_x14_x4=[
0,1,7.1|
0,2,2.8|
1,0,1.4|
1,2,9.8|
2,0,1.7|
2,1,0.16|
];
constraint_x14_x6=[
0,1,0.75|
0,2,3.3|
1,0,1.2|
1,2,3.1|
2,0,5.5|
2,1,3.3|
];
constraint_x14_x9=[
0,1,5.5|
0,2,9.1|
1,0,3.9|
1,2,6|
2,0,6.8|
2,1,1.3|
];
constraint_x14_x11=[
0,1,1.1|
0,2,1.4|
1,0,4.1|
1,2,2.1|
2,0,2.8|
2,1,4.5|
];
constraint_x14_x12=[
0,1,2.4|
0,2,9.3|
1,0,3.3|
1,2,7.1|
2,0,3.4|
2,1,4.9|
];
constraint_x14_x13=[
0,1,5.9|
0,2,3.7|
1,0,3|
1,2,4.9|
2,0,3.3|
2,1,8.9|
];
constraint_x15_x5=[
0,1,6.4|
0,2,2.9|
1,0,2.1|
1,2,1.1|
2,0,4.2|
2,1,2.8|
];
constraint_x15_x7=[
0,1,7.9|
0,2,7.2|
1,0,2.7|
1,2,9.3|
2,0,7.7|
2,1,6.7|
];
constraint_x15_x9=[
0,1,8.9|
0,2,4.2|
1,0,2.4|
1,2,0.35|
2,0,9.5|
2,1,0.01|
];
constraint_x15_x11=[
0,1,8.2|
0,2,6.1|
1,0,7.4|
1,2,5.1|
2,0,0.03|
2,1,0.81|
];
constraint_x15_x12=[
0,1,9.5|
0,2,5.3|
1,0,6.4|
1,2,6|
2,0,7.3|
2,1,5.5|
];
constraint_x15_x14=[
0,1,1.1|
0,2,1.6|
1,0,7.7|
1,2,1.8|
2,0,0.21|
2,1,9.7|
];
constraint_x1_y1=[
0,0,1.2|
0,1,0.16|
0,2,5.1|
1,0,4.2|
1,1,8.2|
1,2,4.9|
2,0,5.3|
2,1,9.4|
2,2,8.4|
];
constraint_x2_y2=[
0,0,9.3|
0,1,5.9|
0,2,9.3|
1,0,8.7|
1,1,6.7|
1,2,2|
2,0,4.6|
2,1,2|
2,2,9.5|
];
constraint_x3_y3=[
0,0,7.1|
0,1,9.3|
0,2,9.2|
1,0,5.4|
1,1,2.8|
1,2,2.7|
2,0,8.3|
2,1,0.98|
2,2,8.6|
];
initial_distribution_y1=[0.44,0.17,0.39];
initial_distribution_y2=[0.16,0.06,0.78];
initial_distribution_y3=[0.026,0.79,0.18];
transition_y1=[
0.71,0.17,0.12|
0.66,0.1,0.24|
0.33,0.078,0.59|
];
transition_y2=[
0.05,0.49,0.46|
0.33,0.15,0.52|
0.4,0.24,0.36|
];
transition_y3=[
0.096,0.33,0.57|
0.48,0.3,0.22|
0.26,0.13,0.61|
];
